32	0

0	7	2	3	9	5	6	7	8
3	2	4	10
2	2	4	10
10	2	11	12
9	2	11	12
8	1	10
5	1	10
6	1	10
4	1	10
3	2	11	12
4	2	13	14
10	1	15
9	1	15
4	1	15
2	3	16	17	18
8	3	19	21	24
9	2	21	24
7	3	19	20	22
7	2	23	27
6	2	21	24
3	2	23	27
8	2	23	27
6	1	25
7	1	25
2	1	26
1	1	28
10	1	29
1	1	29
6	1	30
1	1	31
10	1	32
0	0
